100 8
208 297
524 81
491 65
557 323
651 482
625 613
495 349
452 397
287 913
486 464
499 555
231 714
452 926
542 202
147 295
423 583
559 879
271 354
747 423
552 216
435 824
540 84
116 233
457 441
237 866
210 534
155 303
428 554
519 240
667 495
750 713
555 254
359 569
148 334
197 472
634 78
704 483
241 247
289 286
379 908
486 309
665 342
560 634
464 181
562 439
460 225
375 531
176 878
315 343
264 309
94 512
549 292
561 870
516 48
691 453
131 361
178 817
282 820
733 666
534 366
249 795
449 761
559 901
705 399
512 235
735 605
283 440
130 877
547 168
134 942
558 677
218 322
409 183
570 174
222 177
703 478
582 455
328 293
578 211
142 298
283 873
138 472
137 241
735 318
628 406
716 486
521 753
584 536
668 117
229 239
228 965
133 167
261 283
328 620
43 871
111 547
233 442
437 227
355 551
455 363
